QPLIB_3822
QBB
maximize
861 # number of variables
1680 # number of quadratic terms in objective
2 1 4.0
127 1 -4.0
431 1 -4.0
453 1 4.0
395 2 4.0
429 2 -4.0
475 2 -4.0
4 3 4.0
107 3 -4.0
447 3 -4.0
493 3 4.0
412 4 -4.0
647 4 4.0
732 4 -4.0
54 5 4.0
399 5 -4.0
669 5 4.0
706 5 -4.0
7 6 -4.0
132 6 4.0
345 6 -4.0
536 6 4.0
16 7 -4.0
102 7 4.0
103 7 4.0
9 8 4.0
426 8 -4.0
469 8 4.0
516 8 -4.0
391 9 -4.0
684 9 4.0
778 9 -4.0
21 10 4.0
335 10 -4.0
710 10 -4.0
801 10 4.0
12 11 4.0
407 11 -4.0
536 11 -4.0
575 11 4.0
101 12 -4.0
185 12 -4.0
266 12 4.0
14 13 -4.0
116 13 4.0
349 13 -4.0
575 13 4.0
24 14 -4.0
115 14 4.0
117 14 4.0
54 15 -4.0
336 15 -4.0
564 15 4.0
858 15 4.0
17 16 4.0
389 16 -4.0
816 16 4.0
90 17 -4.0
171 17 -4.0
275 17 4.0
19 18 -4.0
178 18 -4.0
551 18 4.0
839 18 4.0
163 19 4.0
343 19 -4.0
590 19 4.0
337 20 -4.0
399 20 -4.0
600 20 4.0
803 20 4.0
337 21 -4.0
603 21 4.0
673 21 -4.0
23 22 -4.0
442 22 4.0
572 22 -4.0
810 22 4.0
169 23 4.0
170 23 4.0
806 23 -4.0
25 24 4.0
377 24 -4.0
764 24 4.0
89 25 -4.0
285 25 4.0
810 25 -4.0
118 26 -4.0
390 26 4.0
489 26 4.0
511 26 -4.0
28 27 4.0
29 27 -4.0
152 27 4.0
188 27 -4.0
72 28 -4.0
137 28 4.0
352 28 -4.0
177 29 4.0
347 29 -4.0
620 29 4.0
204 30 4.0
246 30 4.0
800 30 -4.0
856 30 -4.0
32 31 4.0
336 31 -4.0
568 31 4.0
712 31 -4.0
856 32 4.0
857 32 -4.0
860 32 -4.0
145 33 4.0
171 33 -4.0
422 33 4.0
462 33 -4.0
133 34 -4.0
378 34 4.0
465 34 4.0
542 34 -4.0
161 35 4.0
423 35 4.0
646 35 -4.0
729 35 -4.0
37 36 4.0
38 36 -4.0
138 36 4.0
694 36 -4.0
62 37 -4.0
124 37 4.0
350 37 -4.0
187 38 4.0
350 38 -4.0
656 38 4.0
40 39 4.0
87 39 -4.0
519 39 4.0
696 39 -4.0
97 40 -4.0
138 40 -4.0
741 40 4.0
42 41 4.0
337 41 -4.0
531 41 4.0
754 41 -4.0
801 42 4.0
802 42 -4.0
805 42 -4.0
131 43 4.0
185 43 -4.0
406 43 4.0
485 43 -4.0
678 44 4.0
722 44 -4.0
763 44 4.0
815 44 -4.0
46 45 4.0
146 45 -4.0
369 45 4.0
581 45 -4.0
278 46 4.0
444 46 -4.0
681 46 -4.0
48 47 -4.0
148 47 4.0
445 47 4.0
547 47 -4.0
252 48 4.0
390 48 -4.0
825 48 4.0
470 49 4.0
472 49 -4.0
654 49 4.0
781 49 -4.0
51 50 -4.0
125 50 4.0
654 50 4.0
658 50 -4.0
352 51 -4.0
653 51 4.0
692 51 4.0
53 52 4.0
474 52 -4.0
557 52 4.0
660 52 -4.0
108 53 -4.0
125 53 -4.0
788 53 4.0
204 54 -4.0
223 54 4.0
114 55 4.0
195 55 -4.0
388 55 4.0
505 55 -4.0
57 56 -4.0
58 56 4.0
81 56 4.0
409 56 -4.0
408 57 -4.0
506 57 4.0
679 57 4.0
637 58 -4.0
723 58 -4.0
764 58 4.0
60 59 4.0
70 59 4.0
466 59 -4.0
610 59 -4.0
81 60 -4.0
267 60 -4.0
488 60 4.0
135 61 4.0
411 61 -4.0
467 61 4.0
514 61 -4.0
63 62 4.0
64 62 -4.0
96 62 4.0
371 63 -4.0
516 63 -4.0
652 63 4.0
253 64 4.0
279 64 4.0
392 64 -4.0
451 65 -4.0
593 65 4.0
621 65 -4.0
841 65 4.0
190 66 4.0
557 66 -4.0
593 66 4.0
595 66 -4.0
68 67 4.0
101 67 4.0
534 67 -4.0
635 67 -4.0
236 68 4.0
376 68 -4.0
461 68 -4.0
338 69 4.0
606 69 -4.0
679 69 -4.0
816 69 4.0
346 70 -4.0
467 70 -4.0
491 70 4.0
424 71 -4.0
491 71 4.0
515 71 -4.0
683 71 4.0
73 72 4.0
74 72 -4.0
84 72 4.0
150 73 -4.0
493 73 -4.0
690 73 4.0
261 74 4.0
271 74 4.0
413 74 -4.0
76 75 4.0
430 75 -4.0
591 75 -4.0
623 75 4.0
97 76 4.0
344 76 -4.0
473 76 -4.0
180 77 4.0
519 77 -4.0
623 77 4.0
625 77 -4.0
79 78 4.0
90 78 4.0
571 78 -4.0
605 78 -4.0
225 79 4.0
368 79 -4.0
441 79 -4.0
339 80 4.0
575 80 4.0
576 80 -4.0
638 80 -4.0
250 81 4.0
339 81 -4.0
446 82 -4.0
512 82 4.0
548 82 -4.0
728 82 4.0
136 83 -4.0
305 83 4.0
342 83 4.0
469 83 -4.0
342 84 -4.0
737 84 4.0
784 84 -4.0
151 85 4.0
393 85 4.0
696 85 -4.0
737 85 -4.0
87 86 -4.0
166 86 4.0
663 86 4.0
665 86 -4.0
244 87 4.0
495 87 4.0
89 88 4.0
90 88 -4.0
91 88 4.0
636 88 -4.0
157 89 4.0
809 89 -4.0
170 90 4.0
258 91 -4.0
536 91 4.0
606 91 -4.0
340 92 4.0
536 92 4.0
537 92 -4.0
607 92 -4.0
468 93 -4.0
545 93 4.0
585 93 -4.0
775 93 4.0
175 94 4.0
447 94 -4.0
729 94 -4.0
775 94 4.0
122 95 -4.0
311 95 4.0
343 95 4.0
448 95 -4.0
343 96 -4.0
693 96 4.0
838 96 -4.0
137 97 4.0
693 97 -4.0
154 98 4.0
474 98 -4.0
699 98 4.0
701 98 -4.0
100 99 4.0
101 99 -4.0
102 99 4.0
676 99 -4.0
144 100 4.0
759 100 -4.0
812 100 -4.0
604 101 4.0
573 102 -4.0
576 102 -4.0
341 103 4.0
506 103 -4.0
577 103 -4.0
332 104 4.0
390 104 4.0
724 104 -4.0
726 104 -4.0
492 105 -4.0
583 105 4.0
613 105 -4.0
829 105 4.0
162 106 4.0
549 106 -4.0
728 106 -4.0
829 106 4.0
587 107 4.0
617 107 4.0
781 107 -4.0
124 108 4.0
657 108 -4.0
841 108 4.0
141 109 4.0
451 109 -4.0
742 109 4.0
744 109 -4.0
111 110 4.0
562 110 -4.0
708 110 4.0
750 110 -4.0
288 111 4.0
478 111 -4.0
629 111 -4.0
113 112 4.0
114 112 -4.0
115 112 4.0
720 112 -4.0
130 113 4.0
718 113 -4.0
761 113 -4.0
407 114 -4.0
634 114 4.0
276 115 -4.0
537 115 -4.0
117 116 4.0
487 116 -4.0
539 116 -4.0
216 117 -4.0
538 117 -4.0
119 118 4.0
411 118 -4.0
827 118 4.0
330 119 4.0
680 119 -4.0
682 119 -4.0
121 120 4.0
149 120 4.0
586 120 -4.0
683 120 -4.0
211 121 4.0
425 121 -4.0
828 121 -4.0
123 122 -4.0
615 122 4.0
651 122 4.0
175 123 -4.0
298 123 4.0
834 123 4.0
291 124 -4.0
619 124 -4.0
591 125 -4.0
656 125 4.0
430 126 -4.0
789 126 4.0
791 126 4.0
792 126 -4.0
167 127 4.0
627 127 -4.0
791 127 4.0
129 128 4.0
525 128 -4.0
671 128 4.0
802 128 -4.0
283 129 4.0
456 129 -4.0
598 129 -4.0
290 130 -4.0
329 130 4.0
674 130 -4.0
389 131 -4.0
675 131 4.0
761 131 -4.0
463 132 4.0
508 132 -4.0
578 132 -4.0
173 133 4.0
424 133 -4.0
643 133 4.0
355 134 4.0
412 134 -4.0
513 134 4.0
774 134 -4.0
252 135 -4.0
355 135 -4.0
647 135 4.0
550 136 -4.0
649 136 4.0
689 136 4.0
299 137 -4.0
589 137 -4.0
555 138 -4.0
692 138 4.0
452 139 -4.0
844 139 4.0
846 139 4.0
847 139 -4.0
141 140 -4.0
155 140 4.0
433 140 -4.0
846 140 4.0
262 141 -4.0
282 141 4.0
143 142 4.0
563 142 -4.0
631 142 4.0
857 142 -4.0
274 143 4.0
435 143 -4.0
561 143 -4.0
193 144 -4.0
295 144 -4.0
324 144 4.0
377 145 -4.0
717 145 4.0
812 145 -4.0
159 146 4.0
446 146 -4.0
611 146 4.0
357 147 4.0
391 147 -4.0
546 147 4.0
727 147 -4.0
241 148 -4.0
269 148 4.0
357 148 -4.0
357 149 -4.0
615 149 -4.0
686 149 4.0
176 150 4.0
588 150 -4.0
686 150 4.0
551 151 4.0
552 151 -4.0
554 151 -4.0
518 152 -4.0
696 152 -4.0
736 152 4.0
313 153 -4.0
429 153 4.0
696 153 4.0
697 153 -4.0
254 154 -4.0
351 154 -4.0
848 154 4.0
351 155 -4.0
382 155 4.0
397 155 -4.0
264 156 4.0
416 156 -4.0
523 156 -4.0
600 156 4.0
183 157 -4.0
301 157 -4.0
318 157 4.0
249 158 -4.0
277 158 4.0
349 158 4.0
721 158 -4.0
196 159 4.0
466 159 -4.0
727 159 -4.0
196 160 -4.0
359 160 4.0
379 160 -4.0
584 160 4.0
231 161 -4.0
309 161 4.0
359 161 -4.0
359 162 -4.0
587 162 -4.0
732 162 4.0
312 163 -4.0
781 163 4.0
782 163 -4.0
322 164 -4.0
660 164 4.0
661 164 -4.0
844 164 4.0
353 165 4.0
432 165 -4.0
495 165 4.0
845 165 -4.0
353 166 -4.0
495 166 -4.0
793 166 4.0
353 167 -4.0
373 167 4.0
415 167 -4.0
255 168 4.0
398 168 -4.0
498 168 -4.0
564 168 4.0
757 169 -4.0
571 170 -4.0
572 170 -4.0
214 171 4.0
808 171 4.0
345 172 -4.0
541 172 4.0
610 172 -4.0
821 172 4.0
186 173 4.0
490 173 -4.0
774 173 -4.0
186 174 -4.0
364 174 4.0
370 174 -4.0
612 174 4.0
364 175 -4.0
778 175 4.0
177 176 4.0
380 176 -4.0
835 176 -4.0
321 177 -4.0
735 177 -4.0
621 178 -4.0
786 178 4.0
837 178 4.0
356 179 4.0
414 179 -4.0
520 179 4.0
790 179 -4.0
356 180 -4.0
520 180 -4.0
745 180 4.0
245 181 4.0
383 181 -4.0
478 181 -4.0
526 181 4.0
209 182 4.0
362 182 -4.0
481 182 4.0
501 182 -4.0
184 183 4.0
363 183 -4.0
604 183 4.0
716 184 -4.0
225 185 4.0
227 185 4.0
325 186 4.0
646 186 -4.0
326 187 -4.0
689 187 4.0
691 187 -4.0
220 188 4.0
591 188 -4.0
739 188 4.0
358 189 4.0
396 189 -4.0
558 189 4.0
743 189 -4.0
314 190 4.0
358 190 -4.0
558 190 -4.0
199 191 -4.0
456 191 -4.0
499 191 4.0
855 191 4.0
205 192 4.0
367 192 -4.0
458 192 4.0
530 192 -4.0
194 193 4.0
368 193 -4.0
634 193 4.0
674 194 -4.0
236 195 4.0
237 195 4.0
407 195 -4.0
319 196 -4.0
331 196 4.0
413 197 4.0
516 197 -4.0
586 197 4.0
776 197 -4.0
360 198 4.0
381 198 -4.0
594 198 4.0
700 198 -4.0
200 199 4.0
201 199 4.0
361 199 -4.0
398 200 -4.0
476 200 4.0
521 200 -4.0
399 201 -4.0
435 201 -4.0
479 201 4.0
427 202 4.0
493 202 -4.0
614 202 4.0
730 202 -4.0
365 203 4.0
372 203 -4.0
624 203 4.0
664 203 -4.0
383 204 4.0
416 204 -4.0
385 205 -4.0
332 206 4.0
609 206 4.0
723 206 -4.0
820 206 -4.0
448 207 4.0
469 207 -4.0
648 207 4.0
685 207 -4.0
287 208 -4.0
292 208 4.0
623 208 4.0
842 208 -4.0
403 209 -4.0
330 210 4.0
641 210 4.0
679 210 -4.0
767 210 -4.0
491 211 4.0
492 211 -4.0
514 211 -4.0
287 212 4.0
475 212 -4.0
593 212 4.0
786 212 -4.0
214 213 4.0
216 213 4.0
408 213 -4.0
486 213 -4.0
760 214 -4.0
763 214 -4.0
216 215 4.0
537 215 -4.0
638 215 4.0
723 215 -4.0
762 216 -4.0
259 217 -4.0
319 217 4.0
467 217 4.0
611 217 -4.0
467 218 4.0
468 218 -4.0
547 218 -4.0
829 218 4.0
325 219 -4.0
730 219 4.0
829 219 4.0
831 219 -4.0
619 220 4.0
658 220 -4.0
691 220 -4.0
281 221 4.0
452 221 -4.0
557 221 4.0
739 221 -4.0
223 222 -4.0
224 222 4.0
384 222 -4.0
400 222 4.0
264 223 4.0
457 223 -4.0
401 224 -4.0
439 224 4.0
459 224 -4.0
406 225 -4.0
605 225 -4.0
227 226 4.0
229 226 4.0
506 226 -4.0
813 226 -4.0
719 227 -4.0
720 227 -4.0
229 228 4.0
576 228 -4.0
607 228 4.0
767 228 -4.0
285 229 -4.0
463 229 -4.0
251 230 -4.0
308 230 4.0
445 230 4.0
582 230 -4.0
445 231 4.0
446 231 -4.0
775 231 4.0
331 232 -4.0
775 232 4.0
776 232 4.0
777 232 -4.0
430 233 -4.0
519 233 4.0
556 233 4.0
697 233 -4.0
245 234 4.0
401 234 4.0
417 234 -4.0
855 234 -4.0
274 235 4.0
401 235 -4.0
436 235 4.0
480 235 -4.0
388 236 -4.0
635 236 -4.0
290 237 -4.0
535 237 4.0
676 237 -4.0
239 238 4.0
577 238 4.0
606 238 -4.0
820 238 -4.0
275 239 -4.0
443 239 -4.0
535 239 4.0
444 240 4.0
543 240 -4.0
579 240 4.0
771 240 -4.0
423 241 4.0
424 241 -4.0
728 241 4.0
728 242 4.0
729 242 -4.0
731 242 -4.0
830 242 4.0
306 243 -4.0
470 243 4.0
832 243 4.0
833 243 -4.0
451 244 -4.0
592 244 4.0
661 244 -4.0
800 245 -4.0
802 245 -4.0
283 246 4.0
417 246 -4.0
500 246 -4.0
295 247 -4.0
574 247 4.0
635 247 4.0
636 247 -4.0
249 248 4.0
538 248 4.0
637 248 -4.0
768 248 -4.0
266 249 -4.0
574 249 4.0
251 250 -4.0
540 250 4.0
824 250 -4.0
724 251 4.0
825 251 4.0
411 252 -4.0
683 252 4.0
312 253 -4.0
778 253 4.0
779 253 -4.0
395 254 4.0
474 254 4.0
475 254 -4.0
400 255 4.0
749 255 -4.0
750 255 -4.0
288 256 4.0
437 256 -4.0
479 256 4.0
529 256 -4.0
258 257 4.0
407 257 4.0
408 257 -4.0
606 257 -4.0
301 258 -4.0
605 258 4.0
260 259 4.0
410 259 -4.0
680 259 4.0
411 260 4.0
492 260 -4.0
770 260 -4.0
321 261 -4.0
732 261 4.0
733 261 -4.0
451 262 4.0
452 262 -4.0
846 262 4.0
746 263 4.0
846 263 4.0
847 263 -4.0
850 263 -4.0
707 264 -4.0
708 264 -4.0
293 265 4.0
457 265 -4.0
499 265 4.0
566 265 -4.0
573 266 4.0
637 266 -4.0
268 267 4.0
641 267 4.0
645 267 -4.0
424 268 4.0
468 268 -4.0
725 268 -4.0
310 269 -4.0
426 269 4.0
613 269 -4.0
326 270 -4.0
428 270 4.0
686 270 4.0
687 270 -4.0
272 271 4.0
428 271 -4.0
552 271 -4.0
590 272 -4.0
690 272 -4.0
736 272 4.0
791 273 4.0
792 273 -4.0
794 273 4.0
795 273 -4.0
670 274 -4.0
671 274 -4.0
276 275 4.0
677 275 -4.0
301 276 4.0
760 276 -4.0
278 277 4.0
443 277 -4.0
488 277 -4.0
465 278 -4.0
507 278 -4.0
280 279 4.0
449 279 -4.0
589 279 -4.0
620 280 -4.0
652 280 -4.0
692 280 4.0
299 281 4.0
695 281 -4.0
787 281 -4.0
744 282 -4.0
747 282 -4.0
849 282 4.0
630 283 -4.0
631 283 -4.0
318 284 4.0
462 284 -4.0
286 285 4.0
721 285 -4.0
295 286 4.0
719 286 -4.0
814 286 -4.0
291 287 4.0
659 287 -4.0
599 288 -4.0
601 288 -4.0
324 289 4.0
485 289 -4.0
486 290 4.0
675 290 4.0
620 291 4.0
622 291 -4.0
495 292 4.0
843 292 -4.0
845 292 -4.0
562 293 4.0
563 293 -4.0
565 293 -4.0
329 294 4.0
505 294 -4.0
634 295 4.0
513 296 4.0
825 296 4.0
826 296 -4.0
828 296 -4.0
298 297 4.0
514 297 4.0
515 297 -4.0
731 297 -4.0
684 298 -4.0
687 298 -4.0
590 299 4.0
592 299 -4.0
520 300 4.0
787 300 4.0
788 300 -4.0
790 300 -4.0
604 301 4.0
546 302 4.0
772 302 4.0
773 302 -4.0
774 302 -4.0
304 303 4.0
547 303 4.0
548 303 -4.0
777 303 -4.0
550 304 4.0
647 304 -4.0
650 304 -4.0
306 305 4.0
552 305 -4.0
735 305 -4.0
834 306 4.0
835 306 -4.0
558 307 4.0
740 307 4.0
741 307 -4.0
743 307 -4.0
584 308 4.0
726 308 -4.0
727 308 -4.0
310 309 4.0
585 309 -4.0
831 309 -4.0
588 310 4.0
616 310 -4.0
312 311 4.0
589 311 -4.0
782 311 -4.0
780 312 4.0
594 313 4.0
698 313 4.0
700 313 -4.0
315 314 4.0
595 314 -4.0
703 314 -4.0
597 315 4.0
667 315 -4.0
793 315 -4.0
317 316 4.0
603 316 -4.0
334 317 -4.0
859 317 4.0
860 317 -4.0
806 318 -4.0
809 318 -4.0
612 319 4.0
682 319 -4.0
321 320 4.0
617 320 4.0
619 320 -4.0
836 320 -4.0
734 321 4.0
624 322 4.0
662 322 4.0
664 322 -4.0
633 323 -4.0
861 323 4.0
756 324 -4.0
759 324 -4.0
647 325 4.0
828 325 -4.0
653 326 4.0
688 326 4.0
328 327 4.0
673 327 -4.0
752 328 4.0
753 328 -4.0
755 328 -4.0
715 329 -4.0
718 329 -4.0
822 330 -4.0
824 330 -4.0
684 331 4.0
774 331 -4.0
769 332 -4.0
771 332 -4.0
749 333 4.0
851 333 4.0
852 333 -4.0
854 333 -4.0
861 334 4.0
337 335 -4.0
479 335 4.0
527 335 -4.0
710 336 -4.0
856 336 4.0
409 338 -4.0
444 338 -4.0
678 338 -4.0
464 339 -4.0
722 339 -4.0
444 340 -4.0
487 340 -4.0
766 340 -4.0
464 341 -4.0
508 341 -4.0
819 341 -4.0
428 342 -4.0
551 342 -4.0
449 343 -4.0
590 344 4.0
660 344 -4.0
784 344 -4.0
443 345 4.0
539 345 -4.0
410 346 4.0
490 346 -4.0
642 346 -4.0
471 347 -4.0
617 347 4.0
654 347 -4.0
620 348 4.0
621 348 -4.0
838 348 -4.0
841 348 -4.0
578 349 -4.0
639 349 -4.0
494 350 -4.0
651 350 4.0
395 351 4.0
454 351 -4.0
517 352 -4.0
689 352 4.0
476 353 -4.0
374 354 -4.0
713 354 -4.0
447 355 -4.0
614 355 -4.0
433 356 -4.0
496 356 -4.0
648 357 -4.0
454 358 -4.0
521 358 -4.0
685 359 -4.0
476 360 -4.0
559 360 -4.0
595 360 -4.0
416 361 -4.0
454 361 4.0
559 361 -4.0
419 362 -4.0
807 363 -4.0
547 364 -4.0
730 364 -4.0
496 365 -4.0
596 365 -4.0
625 365 -4.0
383 366 -4.0
433 366 4.0
435 366 -4.0
596 366 -4.0
439 367 -4.0
445 369 -4.0
512 369 4.0
824 369 4.0
514 370 -4.0
549 370 -4.0
776 370 -4.0
616 371 -4.0
732 371 4.0
781 371 -4.0
521 372 -4.0
626 372 -4.0
665 372 -4.0
398 373 -4.0
456 373 -4.0
626 373 -4.0
375 374 -4.0
438 374 4.0
567 374 -4.0
459 375 -4.0
674 376 -4.0
535 377 4.0
605 377 -4.0
423 378 -4.0
545 378 4.0
771 378 4.0
515 379 -4.0
586 379 -4.0
830 379 -4.0
470 380 -4.0
650 380 -4.0
778 380 4.0
559 381 -4.0
666 381 -4.0
701 381 -4.0
416 382 -4.0
478 382 -4.0
666 382 -4.0
796 383 -4.0
417 384 -4.0
419 384 4.0
482 384 -4.0
386 385 -4.0
418 385 4.0
859 385 -4.0
482 386 -4.0
388 387 -4.0
716 387 -4.0
484 388 -4.0
574 389 4.0
635 389 -4.0
583 390 4.0
548 391 -4.0
614 391 -4.0
687 392 -4.0
689 392 -4.0
832 392 4.0
394 393 -4.0
450 393 -4.0
554 393 -4.0
429 394 -4.0
474 394 -4.0
622 394 4.0
453 395 -4.0
596 396 -4.0
702 396 -4.0
744 396 -4.0
435 397 -4.0
498 397 -4.0
702 397 -4.0
524 398 -4.0
400 399 4.0
437 400 -4.0
402 401 -4.0
403 402 4.0
437 402 -4.0
502 402 -4.0
404 403 -4.0
804 403 -4.0
502 404 -4.0
406 405 -4.0
757 405 -4.0
504 406 -4.0
818 408 -4.0
410 409 4.0
510 409 -4.0
509 410 4.0
585 412 -4.0
648 412 -4.0
651 413 -4.0
733 413 -4.0
626 414 -4.0
746 414 -4.0
792 414 -4.0
456 415 -4.0
523 415 -4.0
746 415 -4.0
418 417 -4.0
457 418 -4.0
531 418 -4.0
420 419 -4.0
752 419 -4.0
531 420 -4.0
422 421 -4.0
807 421 -4.0
533 422 -4.0
808 422 -4.0
772 423 4.0
426 425 -4.0
613 425 -4.0
685 425 -4.0
686 426 -4.0
428 427 -4.0
617 427 -4.0
779 427 -4.0
431 429 -4.0
431 430 -4.0
791 431 -4.0
666 432 -4.0
794 432 -4.0
847 432 -4.0
434 433 -4.0
478 434 -4.0
561 434 -4.0
794 434 -4.0
524 436 -4.0
801 436 -4.0
854 436 -4.0
438 437 -4.0
480 438 -4.0
568 438 -4.0
440 439 -4.0
711 439 -4.0
568 440 -4.0
442 441 -4.0
570 442 -4.0
758 442 -4.0
765 443 -4.0
644 446 -4.0
649 447 4.0
449 448 -4.0
833 448 -4.0
688 449 4.0
452 450 -4.0
555 450 -4.0
663 450 4.0
702 453 -4.0
849 453 -4.0
455 454 -4.0
498 455 -4.0
598 455 -4.0
849 455 -4.0
458 457 -4.0
500 458 -4.0
603 458 -4.0
460 459 -4.0
753 459 -4.0
603 460 -4.0
462 461 -4.0
717 462 -4.0
507 463 -4.0
817 463 -4.0
465 464 -4.0
724 464 4.0
725 465 -4.0
468 466 -4.0
582 466 4.0
471 469 -4.0
618 470 4.0
618 471 -4.0
734 471 4.0
553 472 -4.0
618 472 -4.0
656 472 -4.0
475 473 -4.0
518 473 -4.0
699 473 4.0
477 476 -4.0
523 477 -4.0
629 477 -4.0
850 477 4.0
749 479 -4.0
481 480 -4.0
528 480 -4.0
529 481 -4.0
633 481 -4.0
483 482 -4.0
805 482 -4.0
633 483 -4.0
485 484 -4.0
675 485 -4.0
572 486 -4.0
762 486 -4.0
489 487 -4.0
680 487 4.0
489 488 -4.0
538 488 -4.0
770 489 -4.0
492 490 -4.0
544 490 4.0
645 491 4.0
494 493 -4.0
652 494 -4.0
780 494 4.0
497 496 -4.0
796 496 -4.0
561 497 -4.0
668 497 -4.0
795 497 4.0
562 498 -4.0
707 499 -4.0
856 499 4.0
501 500 -4.0
565 500 -4.0
566 501 -4.0
673 501 -4.0
503 502 -4.0
860 502 -4.0
673 503 -4.0
505 504 -4.0
634 505 -4.0
814 506 -4.0
509 507 -4.0
818 507 4.0
511 508 -4.0
641 508 4.0
511 509 -4.0
577 509 -4.0
543 510 -4.0
639 510 -4.0
823 510 4.0
823 511 -4.0
513 512 4.0
682 512 4.0
515 513 -4.0
517 516 -4.0
690 517 -4.0
834 517 4.0
658 518 -4.0
787 518 4.0
520 519 4.0
522 521 -4.0
598 522 -4.0
705 522 -4.0
747 522 4.0
525 523 -4.0
527 524 -4.0
799 524 -4.0
527 525 -4.0
705 525 -4.0
528 526 4.0
670 526 -4.0
801 526 4.0
528 527 -4.0
602 528 -4.0
530 529 -4.0
601 529 -4.0
602 530 -4.0
712 530 -4.0
532 531 -4.0
712 532 -4.0
534 533 -4.0
604 534 -4.0
715 534 -4.0
537 535 -4.0
540 538 -4.0
542 539 -4.0
609 539 4.0
542 540 -4.0
607 540 -4.0
544 541 -4.0
770 541 4.0
822 541 4.0
544 542 -4.0
644 543 -4.0
772 543 4.0
772 544 -4.0
546 545 4.0
726 545 4.0
548 546 -4.0
550 549 -4.0
832 549 4.0
834 550 -4.0
835 551 4.0
783 552 4.0
554 553 -4.0
655 553 4.0
694 553 -4.0
556 554 -4.0
694 555 -4.0
740 555 4.0
738 556 -4.0
740 556 -4.0
558 557 4.0
560 559 -4.0
629 560 -4.0
703 560 4.0
748 560 -4.0
563 561 -4.0
668 562 -4.0
748 563 -4.0
565 564 4.0
630 564 -4.0
632 565 -4.0
567 566 -4.0
631 566 -4.0
632 567 -4.0
754 567 -4.0
569 568 -4.0
754 569 -4.0
571 570 -4.0
756 571 -4.0
573 572 -4.0
811 573 -4.0
576 574 -4.0
636 575 4.0
579 577 -4.0
580 578 4.0
581 578 -4.0
581 579 -4.0
638 579 -4.0
582 580 -4.0
725 580 4.0
769 580 4.0
582 581 -4.0
584 583 4.0
773 583 4.0
585 584 -4.0
588 586 -4.0
731 587 4.0
780 587 4.0
780 588 -4.0
837 589 4.0
698 591 4.0
698 592 -4.0
785 592 -4.0
594 593 4.0
595 594 -4.0
597 596 -4.0
668 597 -4.0
798 597 -4.0
599 598 -4.0
600 599 -4.0
798 599 -4.0
601 600 4.0
672 601 -4.0
671 602 -4.0
859 602 -4.0
608 607 -4.0
610 608 -4.0
679 608 -4.0
724 608 4.0
611 609 -4.0
681 609 4.0
611 610 -4.0
613 612 -4.0
827 612 4.0
616 614 -4.0
734 615 4.0
777 615 4.0
734 616 -4.0
619 618 -4.0
662 621 4.0
662 622 -4.0
840 622 -4.0
624 623 4.0
625 624 -4.0
745 625 -4.0
628 626 -4.0
628 627 -4.0
745 627 -4.0
796 627 -4.0
705 628 -4.0
853 628 -4.0
630 629 -4.0
853 630 -4.0
709 631 -4.0
708 632 -4.0
804 632 -4.0
710 633 4.0
637 636 -4.0
640 638 -4.0
642 639 -4.0
768 639 4.0
642 640 -4.0
680 640 4.0
723 640 -4.0
643 641 -4.0
643 642 -4.0
645 643 -4.0
646 644 -4.0
681 644 -4.0
646 645 -4.0
650 648 -4.0
688 649 4.0
831 649 4.0
688 650 -4.0
653 651 4.0
655 652 -4.0
655 653 -4.0
657 654 4.0
657 655 -4.0
659 656 4.0
659 657 -4.0
661 658 4.0
661 659 -4.0
839 660 -4.0
789 662 4.0
664 663 4.0
787 663 4.0
665 664 -4.0
793 665 -4.0
667 666 -4.0
669 667 -4.0
748 667 -4.0
670 668 -4.0
670 669 -4.0
797 669 -4.0
751 671 -4.0
750 672 -4.0
752 672 -4.0
859 672 -4.0
675 674 4.0
677 676 -4.0
816 676 4.0
678 677 -4.0
818 677 -4.0
767 678 -4.0
682 681 -4.0
684 683 4.0
687 685 -4.0
691 690 -4.0
693 691 -4.0
695 692 4.0
695 693 -4.0
697 694 4.0
697 695 -4.0
742 698 4.0
700 699 4.0
740 699 4.0
701 700 -4.0
848 701 -4.0
704 702 -4.0
704 703 -4.0
848 703 -4.0
706 704 -4.0
798 704 -4.0
707 705 -4.0
707 706 -4.0
852 706 -4.0
803 708 -4.0
711 709 -4.0
802 709 -4.0
804 709 -4.0
713 710 -4.0
713 711 -4.0
803 711 -4.0
714 712 -4.0
714 713 -4.0
717 716 4.0
718 716 -4.0
719 717 4.0
719 718 -4.0
721 720 -4.0
764 720 4.0
722 721 -4.0
820 722 -4.0
726 725 -4.0
729 727 -4.0
733 730 -4.0
733 731 -4.0
737 735 -4.0
837 735 -4.0
738 736 4.0
836 736 -4.0
738 737 -4.0
739 738 -4.0
741 739 -4.0
844 741 -4.0
743 742 4.0
843 742 -4.0
744 743 -4.0
747 745 -4.0
851 746 -4.0
851 747 -4.0
749 748 -4.0
858 750 -4.0
752 751 -4.0
753 751 -4.0
857 751 -4.0
858 753 -4.0
755 754 -4.0
758 757 4.0
759 757 -4.0
760 758 4.0
810 758 4.0
760 759 -4.0
763 761 -4.0
814 761 4.0
765 762 -4.0
812 762 4.0
765 763 -4.0
766 764 -4.0
766 765 -4.0
768 766 -4.0
769 767 -4.0
769 768 -4.0
773 770 -4.0
773 771 -4.0
779 776 -4.0
779 777 -4.0
783 782 -4.0
784 782 -4.0
785 783 4.0
839 783 4.0
785 784 -4.0
786 785 -4.0
788 786 -4.0
789 788 -4.0
790 789 4.0
792 790 -4.0
795 793 -4.0
797 794 -4.0
797 795 -4.0
799 796 -4.0
799 797 -4.0
800 798 -4.0
800 799 -4.0
805 803 -4.0
861 804 4.0
861 805 -4.0
808 807 4.0
809 807 -4.0
811 808 4.0
811 809 -4.0
813 810 4.0
813 811 -4.0
815 812 -4.0
815 813 -4.0
817 814 -4.0
817 815 -4.0
819 816 -4.0
819 817 -4.0
821 818 -4.0
821 819 -4.0
822 820 -4.0
822 821 -4.0
825 823 -4.0
826 823 -4.0
826 824 -4.0
827 826 4.0
828 827 -4.0
832 830 -4.0
833 830 -4.0
833 831 -4.0
836 835 -4.0
838 836 -4.0
840 837 4.0
840 838 -4.0
842 839 4.0
842 840 -4.0
843 841 4.0
843 842 -4.0
845 844 4.0
847 845 -4.0
850 848 -4.0
852 849 -4.0
852 850 -4.0
853 851 -4.0
854 853 -4.0
855 854 -4.0
857 855 -4.0
860 858 -4.0
0.0 # default value for linear coefficients in objective
527 # number of non-default linear coefficients in objective
335 2.0
336 2.0
337 4.0
338 2.0
339 2.0
340 2.0
341 2.0
342 2.0
343 2.0
344 2.0
345 2.0
346 2.0
347 2.0
348 2.0
349 2.0
350 2.0
351 2.0
352 2.0
353 2.0
354 2.0
355 2.0
356 2.0
357 2.0
358 2.0
359 2.0
360 2.0
361 2.0
362 2.0
363 2.0
364 2.0
365 2.0
366 2.0
367 2.0
368 2.0
369 -2.0
370 4.0
371 2.0
372 4.0
373 2.0
374 2.0
375 2.0
376 2.0
377 2.0
378 -2.0
379 4.0
380 2.0
381 4.0
382 2.0
383 2.0
384 2.0
385 2.0
386 2.0
387 2.0
388 2.0
389 2.0
390 -2.0
391 4.0
392 2.0
393 2.0
394 2.0
395 -2.0
396 4.0
397 4.0
398 4.0
399 2.0
400 -2.0
401 2.0
402 2.0
403 2.0
404 2.0
405 2.0
406 2.0
407 2.0
408 4.0
409 2.0
410 -2.0
411 2.0
412 4.0
413 2.0
414 4.0
415 4.0
416 4.0
417 4.0
418 2.0
419 2.0
420 2.0
421 2.0
422 2.0
423 -2.0
424 2.0
425 4.0
426 2.0
427 2.0
428 2.0
429 2.0
430 4.0
431 4.0
432 4.0
433 2.0
434 4.0
435 4.0
436 2.0
437 4.0
438 2.0
439 2.0
440 2.0
441 2.0
442 2.0
443 2.0
444 2.0
445 -2.0
446 4.0
447 2.0
448 2.0
449 2.0
450 2.0
451 2.0
452 4.0
453 2.0
454 2.0
455 4.0
456 4.0
457 4.0
458 2.0
459 4.0
460 2.0
461 2.0
462 4.0
463 2.0
464 2.0
465 2.0
466 2.0
467 -2.0
468 4.0
469 2.0
470 -2.0
471 2.0
472 4.0
473 2.0
474 2.0
475 4.0
476 2.0
477 2.0
478 4.0
479 -2.0
480 4.0
481 2.0
482 4.0
483 2.0
484 2.0
485 4.0
486 2.0
487 2.0
488 2.0
489 2.0
490 2.0
491 -4.0
492 4.0
493 2.0
494 2.0
495 -2.0
496 4.0
497 2.0
498 4.0
499 -2.0
500 4.0
501 4.0
502 4.0
503 2.0
504 2.0
505 4.0
506 2.0
507 2.0
508 2.0
509 2.0
510 2.0
511 4.0
512 -4.0
513 -2.0
514 2.0
515 4.0
516 4.0
517 2.0
518 2.0
519 -2.0
520 -2.0
521 4.0
522 2.0
523 4.0
524 4.0
525 4.0
526 -2.0
527 4.0
528 2.0
529 4.0
530 4.0
531 2.0
532 2.0
533 2.0
534 4.0
535 -2.0
536 -2.0
537 4.0
538 2.0
539 2.0
540 2.0
541 -2.0
542 4.0
543 2.0
544 2.0
545 -4.0
546 -2.0
547 2.0
548 4.0
549 2.0
550 2.0
551 -2.0
552 2.0
553 2.0
554 4.0
555 2.0
556 2.0
557 -2.0
558 -2.0
559 4.0
560 2.0
561 4.0
562 2.0
563 4.0
564 -2.0
565 2.0
566 4.0
567 4.0
568 2.0
569 2.0
570 2.0
571 4.0
572 4.0
573 2.0
574 -2.0
575 -4.0
576 4.0
577 2.0
578 2.0
579 2.0
580 -2.0
581 4.0
582 2.0
583 -4.0
584 -2.0
585 4.0
586 2.0
587 -2.0
588 2.0
589 2.0
590 -2.0
591 2.0
592 2.0
593 -4.0
594 -2.0
595 4.0
596 4.0
597 2.0
598 4.0
599 4.0
600 -2.0
601 2.0
602 4.0
603 2.0
604 -2.0
605 2.0
606 4.0
607 2.0
608 2.0
609 -2.0
610 4.0
611 2.0
612 -2.0
613 4.0
614 2.0
615 -2.0
616 4.0
617 -2.0
618 2.0
619 2.0
620 -2.0
621 2.0
622 2.0
623 -4.0
624 -2.0
625 4.0
626 4.0
627 4.0
628 4.0
629 4.0
630 4.0
631 2.0
632 4.0
633 2.0
634 -2.0
635 2.0
636 2.0
637 4.0
638 2.0
639 2.0
640 2.0
641 -2.0
642 4.0
643 2.0
644 4.0
645 2.0
646 4.0
647 -2.0
648 2.0
649 -4.0
650 4.0
651 -2.0
652 2.0
653 -2.0
654 -2.0
655 2.0
656 -2.0
657 2.0
658 2.0
659 2.0
660 2.0
661 2.0
662 -2.0
663 -4.0
664 2.0
665 4.0
666 4.0
667 4.0
668 4.0
669 2.0
670 4.0
671 2.0
672 4.0
673 4.0
674 2.0
675 -2.0
676 2.0
677 4.0
678 2.0
679 2.0
680 -2.0
681 2.0
682 2.0
683 -2.0
684 -2.0
685 4.0
686 -2.0
687 4.0
688 -2.0
689 -2.0
690 2.0
691 4.0
692 -4.0
693 2.0
694 2.0
695 2.0
696 2.0
697 2.0
698 -2.0
699 -4.0
700 2.0
701 4.0
702 4.0
703 2.0
704 4.0
705 4.0
706 4.0
707 4.0
708 2.0
709 4.0
710 2.0
711 4.0
712 4.0
713 4.0
714 2.0
715 2.0
716 2.0
717 -2.0
718 4.0
719 2.0
720 2.0
721 4.0
722 4.0
723 4.0
724 -2.0
725 2.0
726 2.0
727 4.0
728 -2.0
729 4.0
730 2.0
731 2.0
732 -2.0
733 4.0
734 -2.0
735 4.0
736 -2.0
737 2.0
738 2.0
739 2.0
740 -2.0
741 2.0
742 -2.0
743 2.0
744 4.0
745 2.0
746 2.0
747 2.0
748 4.0
749 2.0
750 4.0
751 4.0
752 2.0
753 4.0
754 4.0
755 2.0
756 2.0
757 2.0
758 -2.0
759 4.0
760 2.0
761 2.0
762 2.0
763 2.0
764 -2.0
765 4.0
766 4.0
767 4.0
768 2.0
769 2.0
770 2.0
771 2.0
772 -2.0
773 2.0
774 4.0
775 -4.0
776 2.0
777 2.0
778 -2.0
779 4.0
780 -2.0
781 2.0
782 4.0
783 -2.0
784 4.0
785 2.0
786 2.0
787 -2.0
788 2.0
789 -2.0
790 2.0
791 -2.0
792 4.0
793 2.0
794 2.0
795 2.0
796 4.0
797 4.0
798 4.0
799 4.0
800 4.0
801 -2.0
802 4.0
803 2.0
804 2.0
805 4.0
806 2.0
807 2.0
808 -2.0
809 4.0
810 -2.0
811 2.0
812 2.0
813 2.0
814 2.0
815 4.0
816 -2.0
817 4.0
818 2.0
819 4.0
820 4.0
821 2.0
822 2.0
823 2.0
824 2.0
825 -2.0
826 2.0
827 -2.0
828 4.0
829 -4.0
830 2.0
831 2.0
832 -2.0
833 4.0
834 -2.0
835 2.0
836 4.0
837 -2.0
838 4.0
839 -2.0
840 2.0
841 -2.0
842 2.0
843 2.0
844 -2.0
845 2.0
846 -4.0
847 4.0
848 2.0
849 2.0
850 2.0
851 2.0
852 4.0
853 4.0
854 4.0
855 2.0
856 -2.0
857 4.0
858 2.0
859 2.0
860 4.0
861 -2.0
0.0 # objective constant
1.79769313486232E+308 # value for infinity
0.0 # default variable primal value in starting point
0 # number of non-default variable primal values in starting point
0.0 # default variable bound dual value in starting point
0 # number of non-default variable bound dual values in starting point
0 # number of non-default variable names
0 # number of non-default constraint names
